 49 49 15 18 65 55  1 79 10 37 77 80 79 84 93 21 85 64 46 35
  3 53 59  7 65 58 24 55 26 40 89 94 51 74 54 86 22 83 19 44
 60 88 15 26 11 16 55 59 81 53 92 23 55 79 13 89  2 17 97 41
 12 47 46 17 43 16 91 94 73 89 12 58 25 24 55  1 67  3  1 71
 75 19 60 87 27 48 72 88 48 59 74 86 49 94 15 95 41 94 15 71
 31 61 47 32 34 69 32  1  1 80 19 57 98 37 31 51 66 38 62 72
 70 78 41  9 47 94 26 65 17 42 59 80  7 75 63 96  7 10 47 38
 20 78 38 26 64 62 11 38 68 37 74  9 65 16 38 85 50 62 39 97
 88 30 34 33 21  7 94 10 73 85 82 62 99 67 61 10  4 70 31 49
  9 41 22 34 83 55  3  8 75 30 57 65 89 60 90 84 74 17  2 19